7
2147483647 96 36 93 30 1 45 
96 2147483647 42 4 14 1 46 
36 42 2147483647 18 80 41 53 
93 4 18 2147483647 42 54 77 
30 14 80 42 2147483647 72 56 
1 1 41 54 72 2147483647 40 
45 46 53 77 56 40 2147483647 
